10
0 9 224 284 662 204 534 307 48 51
9 0 358 191 53 112 27 631 465 12
224 358 0 276 257 92 135 99 336 250
284 191 276 0 0 358 222 605 119 21
662 53 257 0 0 141 150 184 70 46
204 112 92 358 141 0 95 89 100 401
534 27 135 222 150 95 0 11 424 9
307 631 99 605 184 89 11 0 40 154
48 465 336 119 70 100 424 40 0 510
51 12 250 21 46 401 9 154 510 0